generated by phonopy
   1.0
    10.8013594800000003    0.0000000000000000    0.0000000000000000
     0.0000000000000000   10.8013594800000003    0.0000000000000000
     0.0000000000000000    0.0000000000000000   10.8013594800000003
Si
  64
Direct
  0.4402774281612929  0.4375000000000000  0.4375000000000000
  0.9375000000000000  0.4375000000000000  0.4375000000000000
  0.4375000000000000  0.9375000000000000  0.4375000000000000
  0.9375000000000000  0.9375000000000000  0.4375000000000000
  0.4375000000000000  0.4375000000000000  0.9375000000000000
  0.9375000000000000  0.4375000000000000  0.9375000000000000
  0.4375000000000000  0.9375000000000000  0.9375000000000000
  0.9375000000000000  0.9375000000000000  0.9375000000000000
  0.4375000000000000  0.1875000000000000  0.1875000000000000
  0.9375000000000000  0.1875000000000000  0.1875000000000000
  0.4375000000000000  0.6875000000000000  0.1875000000000000
  0.9375000000000000  0.6875000000000000  0.1875000000000000
  0.4375000000000000  0.1875000000000000  0.6875000000000000
  0.9375000000000000  0.1875000000000000  0.6875000000000000
  0.4375000000000000  0.6875000000000000  0.6875000000000000
  0.9375000000000000  0.6875000000000000  0.6875000000000000
  0.1875000000000000  0.4375000000000000  0.1875000000000000
  0.6875000000000000  0.4375000000000000  0.1875000000000000
  0.1875000000000000  0.9402774281612928  0.1875000000000000
  0.6875000000000000  0.9375000000000000  0.1875000000000000
  0.1875000000000000  0.4375000000000000  0.6875000000000000
  0.6875000000000000  0.4375000000000000  0.6875000000000000
  0.1875000000000000  0.9375000000000000  0.6875000000000000
  0.6875000000000000  0.9375000000000000  0.6875000000000000
  0.1875000000000000  0.1875000000000000  0.4375000000000000
  0.6875000000000000  0.1875000000000000  0.4375000000000000
  0.1875000000000000  0.6875000000000000  0.4375000000000000
  0.6875000000000000  0.6875000000000000  0.4375000000000000
  0.1875000000000000  0.1875000000000000  0.9375000000000000
  0.6875000000000000  0.1875000000000000  0.9375000000000000
  0.1875000000000000  0.6875000000000000  0.9375000000000000
  0.6875000000000000  0.6875000000000000  0.9375000000000000
  0.0625000000000000  0.0625000000000000  0.0625000000000000
  0.5625000000000000  0.0625000000000000  0.0625000000000000
  0.0625000000000000  0.5625000000000000  0.0625000000000000
  0.5625000000000000  0.5625000000000000  0.0625000000000000
  0.0625000000000000  0.0625000000000000  0.5625000000000000
  0.5625000000000000  0.0625000000000000  0.5625000000000000
  0.0625000000000000  0.5625000000000000  0.5625000000000000
  0.5625000000000000  0.5625000000000000  0.5625000000000000
  0.0625000000000000  0.3125000000000000  0.3125000000000000
  0.5625000000000000  0.3125000000000000  0.3125000000000000
  0.0625000000000000  0.8125000000000000  0.3125000000000000
  0.5625000000000000  0.8125000000000000  0.3125000000000000
  0.0625000000000000  0.3125000000000000  0.8125000000000000
  0.5625000000000000  0.3125000000000000  0.8125000000000000
  0.0625000000000000  0.8125000000000000  0.8125000000000000
  0.5625000000000000  0.8125000000000000  0.8125000000000000
  0.3125000000000000  0.0625000000000000  0.3125000000000000
  0.8125000000000000  0.0625000000000000  0.3125000000000000
  0.3125000000000000  0.5625000000000000  0.3125000000000000
  0.8125000000000000  0.5625000000000000  0.3125000000000000
  0.3125000000000000  0.0625000000000000  0.8125000000000000
  0.8125000000000000  0.0625000000000000  0.8125000000000000
  0.3125000000000000  0.5625000000000000  0.8125000000000000
  0.8125000000000000  0.5625000000000000  0.8125000000000000
  0.3125000000000000  0.3125000000000000  0.0625000000000000
  0.8125000000000000  0.3125000000000000  0.0625000000000000
  0.3125000000000000  0.8125000000000000  0.0625000000000000
  0.8125000000000000  0.8125000000000000  0.0625000000000000
  0.3125000000000000  0.3125000000000000  0.5625000000000000
  0.8125000000000000  0.3125000000000000  0.5625000000000000
  0.3125000000000000  0.8125000000000000  0.5625000000000000
  0.8125000000000000  0.8125000000000000  0.5625000000000000
